NAME /Users/henri/Research/solvers/instances/idol-instances/robust/collection/cbp_Subramanyam_et_al_2020/CapBud_N30_8/models/uncertain_technology_matrix/
ROWS
 N  OBJ
 L  capacity
 L  c_5825
 L  c_5826
 L  c_5827
 L  c_5828
 L  c_5829
 L  c_5830
 L  c_5831
 L  c_5832
 L  c_5833
 L  c_5834
 L  c_5835
 L  c_5836
 L  c_5837
 L  c_5838
 L  c_5839
 L  c_5840
 L  c_5841
 L  c_5842
 L  c_5843
 L  c_5844
 L  c_5845
 L  c_5846
 L  c_5847
 L  c_5848
 L  c_5849
 L  c_5850
 L  c_5851
 L  c_5852
 L  c_5853
 L  c_5854
COLUMNS
    MARKER    'MARKER'                 'INTORG'
    x_0        OBJ        1.67845
    x_0        c_5825     1
    x_0        capacity   0.33569
    x_1        OBJ        4.19104
    x_1        c_5826     1
    x_1        capacity   0.838207
    x_2        OBJ        9.06709
    x_2        c_5827     1
    x_2        capacity   1.81342
    x_3        OBJ        3.59957
    x_3        c_5828     1
    x_3        capacity   0.719914
    x_4        OBJ        7.21997
    x_4        c_5829     1
    x_4        capacity   1.44399
    x_5        OBJ        2.29402
    x_5        c_5830     1
    x_5        capacity   0.458804
    x_6        OBJ        7.17508
    x_6        c_5831     1
    x_6        capacity   1.43502
    x_7        OBJ        7.85653
    x_7        c_5832     1
    x_7        capacity   1.57131
    x_8        OBJ        7.76247
    x_8        c_5833     1
    x_8        capacity   1.55249
    x_9        OBJ        6.20008
    x_9        c_5834     1
    x_9        capacity   1.24002
    x_10       OBJ        9.40335
    x_10       c_5835     1
    x_10       capacity   1.88067
    x_11       OBJ        3.70039
    x_11       c_5836     1
    x_11       capacity   0.740078
    x_12       OBJ        9.53724
    x_12       c_5837     1
    x_12       capacity   1.90745
    x_13       OBJ        0.72278
    x_13       c_5838     1
    x_13       capacity   0.144556
    x_14       OBJ        9.56708
    x_14       c_5839     1
    x_14       capacity   1.91342
    x_15       OBJ        0.80026
    x_15       c_5840     1
    x_15       capacity   0.160052
    x_16       OBJ        6.77208
    x_16       c_5841     1
    x_16       capacity   1.35442
    x_17       OBJ        6.62042
    x_17       c_5842     1
    x_17       capacity   1.32408
    x_18       OBJ        6.47952
    x_18       c_5843     1
    x_18       capacity   1.2959
    x_19       OBJ        6.32753
    x_19       c_5844     1
    x_19       capacity   1.26551
    x_20       OBJ        4.42104
    x_20       c_5845     1
    x_20       capacity   0.884207
    x_21       OBJ        7.67987
    x_21       c_5846     1
    x_21       capacity   1.53597
    x_22       OBJ        7.03583
    x_22       c_5847     1
    x_22       capacity   1.40717
    x_23       OBJ        7.12551
    x_23       c_5848     1
    x_23       capacity   1.4251
    x_24       OBJ        7.26202
    x_24       c_5849     1
    x_24       capacity   1.4524
    x_25       OBJ        7.36058
    x_25       c_5850     1
    x_25       capacity   1.47212
    x_26       OBJ        0.981878
    x_26       c_5851     1
    x_26       capacity   0.196376
    x_27       OBJ        7.04136
    x_27       c_5852     1
    x_27       capacity   1.40827
    x_28       OBJ        6.18418
    x_28       c_5853     1
    x_28       capacity   1.23684
    x_29       OBJ        1.401
    x_29       c_5854     1
    x_29       capacity   0.2802
    y_0        OBJ        1.34276
    y_0        c_5825     1
    y_0        capacity   0.33569
    y_1        OBJ        3.35283
    y_1        c_5826     1
    y_1        capacity   0.838207
    y_2        OBJ        7.25368
    y_2        c_5827     1
    y_2        capacity   1.81342
    y_3        OBJ        2.87966
    y_3        c_5828     1
    y_3        capacity   0.719914
    y_4        OBJ        5.77598
    y_4        c_5829     1
    y_4        capacity   1.44399
    y_5        OBJ        1.83522
    y_5        c_5830     1
    y_5        capacity   0.458804
    y_6        OBJ        5.74007
    y_6        c_5831     1
    y_6        capacity   1.43502
    y_7        OBJ        6.28522
    y_7        c_5832     1
    y_7        capacity   1.57131
    y_8        OBJ        6.20998
    y_8        c_5833     1
    y_8        capacity   1.55249
    y_9        OBJ        4.96006
    y_9        c_5834     1
    y_9        capacity   1.24002
    y_10       OBJ        7.52268
    y_10       c_5835     1
    y_10       capacity   1.88067
    y_11       OBJ        2.96031
    y_11       c_5836     1
    y_11       capacity   0.740078
    y_12       OBJ        7.62979
    y_12       c_5837     1
    y_12       capacity   1.90745
    y_13       OBJ        0.578224
    y_13       c_5838     1
    y_13       capacity   0.144556
    y_14       OBJ        7.65367
    y_14       c_5839     1
    y_14       capacity   1.91342
    y_15       OBJ        0.640208
    y_15       c_5840     1
    y_15       capacity   0.160052
    y_16       OBJ        5.41766
    y_16       c_5841     1
    y_16       capacity   1.35442
    y_17       OBJ        5.29633
    y_17       c_5842     1
    y_17       capacity   1.32408
    y_18       OBJ        5.18361
    y_18       c_5843     1
    y_18       capacity   1.2959
    y_19       OBJ        5.06202
    y_19       c_5844     1
    y_19       capacity   1.26551
    y_20       OBJ        3.53683
    y_20       c_5845     1
    y_20       capacity   0.884207
    y_21       OBJ        6.1439
    y_21       c_5846     1
    y_21       capacity   1.53597
    y_22       OBJ        5.62866
    y_22       c_5847     1
    y_22       capacity   1.40717
    y_23       OBJ        5.70041
    y_23       c_5848     1
    y_23       capacity   1.4251
    y_24       OBJ        5.80961
    y_24       c_5849     1
    y_24       capacity   1.4524
    y_25       OBJ        5.88846
    y_25       c_5850     1
    y_25       capacity   1.47212
    y_26       OBJ        0.785503
    y_26       c_5851     1
    y_26       capacity   0.196376
    y_27       OBJ        5.63309
    y_27       c_5852     1
    y_27       capacity   1.40827
    y_28       OBJ        4.94734
    y_28       c_5853     1
    y_28       capacity   1.23684
    y_29       OBJ        1.1208
    y_29       c_5854     1
    y_29       capacity   0.2802
    MARKER    'MARKER'                 'INTEND'
RHS
    RHS       capacity   86.7341
    RHS       c_5825     1
    RHS       c_5826     1
    RHS       c_5827     1
    RHS       c_5828     1
    RHS       c_5829     1
    RHS       c_5830     1
    RHS       c_5831     1
    RHS       c_5832     1
    RHS       c_5833     1
    RHS       c_5834     1
    RHS       c_5835     1
    RHS       c_5836     1
    RHS       c_5837     1
    RHS       c_5838     1
    RHS       c_5839     1
    RHS       c_5840     1
    RHS       c_5841     1
    RHS       c_5842     1
    RHS       c_5843     1
    RHS       c_5844     1
    RHS       c_5845     1
    RHS       c_5846     1
    RHS       c_5847     1
    RHS       c_5848     1
    RHS       c_5849     1
    RHS       c_5850     1
    RHS       c_5851     1
    RHS       c_5852     1
    RHS       c_5853     1
    RHS       c_5854     1
BOUNDS
 LI BND       x_0        0
 UI BND       x_0        1
 LI BND       x_1        0
 UI BND       x_1        1
 LI BND       x_2        0
 UI BND       x_2        1
 LI BND       x_3        0
 UI BND       x_3        1
 LI BND       x_4        0
 UI BND       x_4        1
 LI BND       x_5        0
 UI BND       x_5        1
 LI BND       x_6        0
 UI BND       x_6        1
 LI BND       x_7        0
 UI BND       x_7        1
 LI BND       x_8        0
 UI BND       x_8        1
 LI BND       x_9        0
 UI BND       x_9        1
 LI BND       x_10       0
 UI BND       x_10       1
 LI BND       x_11       0
 UI BND       x_11       1
 LI BND       x_12       0
 UI BND       x_12       1
 LI BND       x_13       0
 UI BND       x_13       1
 LI BND       x_14       0
 UI BND       x_14       1
 LI BND       x_15       0
 UI BND       x_15       1
 LI BND       x_16       0
 UI BND       x_16       1
 LI BND       x_17       0
 UI BND       x_17       1
 LI BND       x_18       0
 UI BND       x_18       1
 LI BND       x_19       0
 UI BND       x_19       1
 LI BND       x_20       0
 UI BND       x_20       1
 LI BND       x_21       0
 UI BND       x_21       1
 LI BND       x_22       0
 UI BND       x_22       1
 LI BND       x_23       0
 UI BND       x_23       1
 LI BND       x_24       0
 UI BND       x_24       1
 LI BND       x_25       0
 UI BND       x_25       1
 LI BND       x_26       0
 UI BND       x_26       1
 LI BND       x_27       0
 UI BND       x_27       1
 LI BND       x_28       0
 UI BND       x_28       1
 LI BND       x_29       0
 UI BND       x_29       1
 LI BND       y_0        0
 UI BND       y_0        1
 LI BND       y_1        0
 UI BND       y_1        1
 LI BND       y_2        0
 UI BND       y_2        1
 LI BND       y_3        0
 UI BND       y_3        1
 LI BND       y_4        0
 UI BND       y_4        1
 LI BND       y_5        0
 UI BND       y_5        1
 LI BND       y_6        0
 UI BND       y_6        1
 LI BND       y_7        0
 UI BND       y_7        1
 LI BND       y_8        0
 UI BND       y_8        1
 LI BND       y_9        0
 UI BND       y_9        1
 LI BND       y_10       0
 UI BND       y_10       1
 LI BND       y_11       0
 UI BND       y_11       1
 LI BND       y_12       0
 UI BND       y_12       1
 LI BND       y_13       0
 UI BND       y_13       1
 LI BND       y_14       0
 UI BND       y_14       1
 LI BND       y_15       0
 UI BND       y_15       1
 LI BND       y_16       0
 UI BND       y_16       1
 LI BND       y_17       0
 UI BND       y_17       1
 LI BND       y_18       0
 UI BND       y_18       1
 LI BND       y_19       0
 UI BND       y_19       1
 LI BND       y_20       0
 UI BND       y_20       1
 LI BND       y_21       0
 UI BND       y_21       1
 LI BND       y_22       0
 UI BND       y_22       1
 LI BND       y_23       0
 UI BND       y_23       1
 LI BND       y_24       0
 UI BND       y_24       1
 LI BND       y_25       0
 UI BND       y_25       1
 LI BND       y_26       0
 UI BND       y_26       1
 LI BND       y_27       0
 UI BND       y_27       1
 LI BND       y_28       0
 UI BND       y_28       1
 LI BND       y_29       0
 UI BND       y_29       1
ENDATA
